c generated by sgen
p cnf 113 236
-2 -3 -4 0
-1 -3 -4 0
-1 -2 -4 0
-1 -2 -3 0
-6 -7 -8 0
-5 -7 -8 0
-5 -6 -8 0
-5 -6 -7 0
-10 -11 -12 0
-9 -11 -12 0
-9 -10 -12 0
-9 -10 -11 0
-14 -15 -16 0
-13 -15 -16 0
-13 -14 -16 0
-13 -14 -15 0
-18 -19 -20 0
-17 -19 -20 0
-17 -18 -20 0
-17 -18 -19 0
-22 -23 -24 0
-21 -23 -24 0
-21 -22 -24 0
-21 -22 -23 0
-26 -27 -28 0
-25 -27 -28 0
-25 -26 -28 0
-25 -26 -27 0
-30 -31 -32 0
-29 -31 -32 0
-29 -30 -32 0
-29 -30 -31 0
-34 -35 -36 0
-33 -35 -36 0
-33 -34 -36 0
-33 -34 -35 0
-38 -39 -40 0
-37 -39 -40 0
-37 -38 -40 0
-37 -38 -39 0
-42 -43 -44 0
-41 -43 -44 0
-41 -42 -44 0
-41 -42 -43 0
-46 -47 -48 0
-45 -47 -48 0
-45 -46 -48 0
-45 -46 -47 0
-50 -51 -52 0
-49 -51 -52 0
-49 -50 -52 0
-49 -50 -51 0
-54 -55 -56 0
-53 -55 -56 0
-53 -54 -56 0
-53 -54 -55 0
-58 -59 -60 0
-57 -59 -60 0
-57 -58 -60 0
-57 -58 -59 0
-62 -63 -64 0
-61 -63 -64 0
-61 -62 -64 0
-61 -62 -63 0
-66 -67 -68 0
-65 -67 -68 0
-65 -66 -68 0
-65 -66 -67 0
-70 -71 -72 0
-69 -71 -72 0
-69 -70 -72 0
-69 -70 -71 0
-74 -75 -76 0
-73 -75 -76 0
-73 -74 -76 0
-73 -74 -75 0
-78 -79 -80 0
-77 -79 -80 0
-77 -78 -80 0
-77 -78 -79 0
-82 -83 -84 0
-81 -83 -84 0
-81 -82 -84 0
-81 -82 -83 0
-86 -87 -88 0
-85 -87 -88 0
-85 -86 -88 0
-85 -86 -87 0
-90 -91 -92 0
-89 -91 -92 0
-89 -90 -92 0
-89 -90 -91 0
-94 -95 -96 0
-93 -95 -96 0
-93 -94 -96 0
-93 -94 -95 0
-98 -99 -100 0
-97 -99 -100 0
-97 -98 -100 0
-97 -98 -99 0
-102 -103 -104 0
-101 -103 -104 0
-101 -102 -104 0
-101 -102 -103 0
-106 -107 -108 0
-105 -107 -108 0
-105 -106 -108 0
-105 -106 -107 0
-109 -110 -111 0
-109 -110 -112 0
-109 -110 -113 0
-109 -111 -112 0
-109 -111 -113 0
-109 -112 -113 0
-110 -111 -112 0
-110 -111 -113 0
-110 -112 -113 0
-111 -112 -113 0
8 57 112 0
16 57 112 0
16 8 112 0
16 8 57 0
108 7 76 0
104 7 76 0
104 108 76 0
104 108 7 0
4 61 30 0
103 61 30 0
103 4 30 0
103 4 61 0
77 101 35 0
92 101 35 0
92 77 35 0
92 77 101 0
53 1 9 0
71 1 9 0
71 53 9 0
71 53 1 0
48 6 23 0
93 6 23 0
93 48 23 0
93 48 6 0
87 41 72 0
106 41 72 0
106 87 72 0
106 87 41 0
89 18 85 0
47 18 85 0
47 89 85 0
47 89 18 0
66 11 27 0
82 11 27 0
82 66 27 0
82 66 11 0
37 63 80 0
5 63 80 0
5 37 80 0
5 37 63 0
14 22 40 0
69 22 40 0
69 14 40 0
69 14 22 0
64 65 56 0
17 65 56 0
17 64 56 0
17 64 65 0
34 51 12 0
107 51 12 0
107 34 12 0
107 34 51 0
45 83 43 0
58 83 43 0
58 45 43 0
58 45 83 0
49 55 38 0
100 55 38 0
100 49 38 0
100 49 55 0
110 31 105 0
26 31 105 0
26 110 105 0
26 110 31 0
20 28 102 0
94 28 102 0
94 20 102 0
94 20 28 0
44 78 15 0
54 78 15 0
54 44 15 0
54 44 78 0
59 24 86 0
68 24 86 0
68 59 86 0
68 59 24 0
25 33 97 0
60 33 97 0
60 25 97 0
60 25 33 0
32 10 75 0
13 10 75 0
13 32 75 0
13 32 10 0
50 81 96 0
29 81 96 0
29 50 96 0
29 50 81 0
98 67 111 0
90 67 111 0
90 98 111 0
90 98 67 0
70 99 46 0
73 99 46 0
73 70 46 0
73 70 99 0
95 88 109 0
39 88 109 0
39 95 109 0
39 95 88 0
84 91 62 0
74 91 62 0
74 84 62 0
74 84 91 0
42 113 36 0
3 113 36 0
3 42 36 0
3 42 113 0
52 21 79 0
52 21 2 0
52 21 19 0
52 79 2 0
52 79 19 0
52 2 19 0
21 79 2 0
21 79 19 0
21 2 19 0
79 2 19 0
